name	xcoord	ycoord	start	end	service
0	0	0	0	2000	0
1	-50	77	583	710	2
2	-92	-31	1736	1820	10
3	95	-25	1697	1918	8
4	-81	-56	1038	1067	15
5	14	7	1479	1613	19
6	88	75	290	432	1
7	-66	-7	1872	1919	1
8	-61	-74	1213	1357	5
9	5	92	1960	2094	6
10	76	98	65	143	17
11	-5	40	909	1051	20
12	-84	37	1260	1429	5
13	-65	-97	1415	1568	5
14	-75	-68	1089	1220	17
15	89	-46	31	186	10
16	-5	-9	637	730	3
17	-36	70	697	783	19
18	-23	81	221	270	10
19	-9	72	1243	1339	10
20	71	-8	1055	1134	5
21	42	-35	1001	1185	13
22	-57	59	712	862	22
23	-27	74	1457	1587	24
24	93	-17	1466	1608	2
25	71	42	1224	1259	4
26	-52	20	1639	1711	0
27	-52	0	1274	1395	12
28	-56	-92	1984	2154	11
29	-67	-52	1192	1328	21
30	-86	67	1039	1252	5
